200
1000
625
619
619
618
614
613
612
611
609
605
602
598
598
590
589
587
586
585
579
578
576
566
566
564
563
563
561
558
549
542
542
541
536
535
529
522
515
512
501
501
500
498
496
495
494
492
492
487
485
481
479
466
466
466
465
464
462
454
453
450
448
442
441
440
440
439
437
436
436
432
432
422
422
421
417
412
408
408
393
384
377
377
376
375
373
373
372
371
371
369
365
359
358
353
353
342
334
327
324
324
321
320
314
312
311
309
308
296
296
293
291
288
285
278
270
269
265
262
262
261
260
259
256
254
251
248
244
237
235
235
234
229
229
227
225
223
222
222
216
212
208
207
206
205
192
191
181
181
180
179
175
175
164
162
162
159
158
157
156
151
148
148
146
143
139
139
134
129
129
128
119
116
109
105
95
93
87
83
83
83
80
78
78
77
76
74
72
65
64
63
62
56
55
55
53
39
38
37
36
36
